Minimize
  - 8 y_0 - 10 y_1 - 6 y_2 - 15 y_3 - 9 y_4 - 15 y_5 - 17 y_6 - 3 y_7
   - 4 y_8 - 18 y_9 - 16 y_10 - 15 y_11 - 17 y_12 - 19 y_13 - 16 y_14
   - 15 y_15 - 23 y_16 - 25 y_17 - 14 y_18 - 16 y_19 - 14 y_20 - 17 y_21
   - 12 y_22 - 14 y_23 - 21 y_24 - 2 y_25 - 16 y_26 - 7 y_27 - 4 y_28
   - 15 y_29 - 13 y_30 - 27 y_31 - 22 y_32 - 24 y_33 - 9 y_34 - 20 y_35
   - 24 y_36 - 13 y_37 - 10 y_38 - 20 y_39 - 24 y_40 - 9 y_41 - 11 y_42
   - 24 y_43 - 6 y_44 - 4 y_45 - 13 y_46 - 17 y_47 - 12 y_48 - 23 y_49
   - 22 y_50 - 6 y_51 - 12 y_52 - 22 y_53 - 16 y_54 - 11 y_55 - 12 y_56
   - 9 y_57 - 22 y_58 - 16 y_59 - 17 y_60 - 16 y_61 - 20 y_62 - 18 y_63
   - 21 y_64 - 14 y_65 - 15 y_66 - 19 y_67 - 18 y_68 - 18 y_69 - 5 y_70
   - 16 y_71 - 19 y_72 - 15 y_73 - 8 y_74 - 8 y_75 - 20 y_76 - 15 y_77
   - 18 y_78 - 16 y_79 - 11 y_80 - 12 y_81 - 15 y_82 - 15 y_83 - 7 y_84
   - 7 y_85 - 19 y_87 - 5 y_88 - 13 y_89 - 15 y_90 - 9 y_91 - 14 y_92
   - 20 y_93 - 14 y_94 - 8 y_95 - 13 y_96 - 9 y_97 - 10 y_98 - 21 y_99
   + 1429 Constant
Subject To
 c_0: y_99 = 1
 c_1_0: y_0 + y_1 + y_2 + y_8 + y_27 + y_38 + y_42 + y_44 + y_51 + y_55
   + y_70 + y_88 + y_98 >= 1
 c_1_1: y_0 + y_1 + y_22 + y_30 + y_38 + y_42 + y_52 + y_55 + y_81 + y_96
   + y_98 >= 1
 c_1_2: y_0 + y_2 + y_4 + y_7 + y_8 + y_25 + y_27 + y_28 + y_38 + y_44
   + y_45 + y_51 + y_70 + y_75 + y_84 + y_88 + y_97 >= 1
 c_1_3: y_3 + y_5 + y_9 + y_19 + y_23 + y_37 + y_48 + y_56 + y_66 + y_71
   + y_77 + y_90 + y_92 >= 1
 c_1_4: y_2 + y_4 + y_27 + y_37 + y_48 + y_56 + y_75 + y_84 + y_88 + y_91
   + y_97 >= 1
 c_1_5: y_3 + y_5 + y_9 + y_19 + y_23 + y_37 + y_48 + y_56 + y_66 + y_71
   + y_77 + y_90 + y_92 >= 1
 c_1_6: y_6 + y_10 + y_14 + y_47 + y_54 + y_59 + y_61 + y_62 + y_68 + y_79
   + y_82 + y_83 >= 1
 c_1_7: y_2 + y_7 + y_8 + y_25 + y_28 + y_44 + y_45 + y_51 + y_70 + y_86
   + y_88 >= 1
 c_1_8: y_0 + y_2 + y_7 + y_8 + y_25 + y_27 + y_28 + y_44 + y_45 + y_51
   + y_70 + y_84 + y_88 >= 1
 c_1_9: y_3 + y_5 + y_9 + y_19 + y_21 + y_71 + y_92 >= 1
 c_1_10: y_6 + y_10 + y_14 + y_15 + y_47 + y_54 + y_59 + y_61 + y_68 + y_79
   + y_82 + y_83 >= 1
 c_1_11: y_11 + y_19 + y_20 + y_21 + y_26 + y_37 + y_46 + y_63 + y_65
   + y_66 + y_67 + y_77 + y_89 + y_90 + y_94 >= 1
 c_1_12: y_12 + y_13 + y_18 + y_20 + y_22 + y_26 + y_29 + y_60 + y_65
   + y_69 + y_73 + y_78 >= 1
 c_1_13: y_12 + y_13 + y_35 + y_50 + y_53 + y_58 + y_60 + y_69 + y_99 >= 1
 c_1_14: y_6 + y_10 + y_14 + y_15 + y_30 + y_47 + y_54 + y_59 + y_61 + y_69
   + y_73 + y_81 + y_83 + y_96 >= 1
 c_1_15: y_10 + y_14 + y_15 + y_30 + y_47 + y_52 + y_54 + y_59 + y_61
   + y_69 + y_73 + y_81 + y_83 + y_96 >= 1
 c_1_16: y_16 + y_35 + y_53 + y_64 + y_93 >= 1
 c_1_17: y_17 + y_32 + y_33 + y_36 + y_40 + y_43 + y_49 + y_50 + y_99 >= 1
 c_1_18: y_12 + y_18 + y_20 + y_22 + y_26 + y_29 + y_30 + y_42 + y_55
   + y_60 + y_65 + y_73 + y_89 + y_94 + y_96 >= 1
 c_1_19: y_3 + y_5 + y_9 + y_11 + y_19 + y_21 + y_23 + y_37 + y_46 + y_48
   + y_56 + y_66 + y_67 + y_71 + y_77 + y_90 + y_92 + y_94 >= 1
 c_1_20: y_11 + y_12 + y_18 + y_20 + y_22 + y_26 + y_29 + y_30 + y_46
   + y_55 + y_60 + y_65 + y_89 + y_94 >= 1
 c_1_21: y_9 + y_11 + y_19 + y_21 + y_39 + y_63 + y_66 + y_67 + y_71 + y_77
   + y_90 >= 1
 c_1_22: y_1 + y_12 + y_18 + y_20 + y_22 + y_29 + y_30 + y_38 + y_42 + y_55
   + y_65 + y_81 + y_89 + y_96 + y_98 >= 1
 c_1_23: y_3 + y_5 + y_19 + y_23 + y_37 + y_48 + y_56 + y_66 + y_71 + y_77
   + y_90 + y_92 >= 1
 c_1_24: y_24 + y_32 + y_50 + y_99 >= 1
 c_1_25: y_2 + y_7 + y_8 + y_25 + y_28 + y_45 + y_70 + y_86 + y_88 >= 1
 c_1_26: y_11 + y_12 + y_18 + y_20 + y_26 + y_29 + y_46 + y_60 + y_63
   + y_65 + y_78 + y_89 + y_93 + y_94 >= 1
 c_1_27: y_0 + y_2 + y_4 + y_8 + y_27 + y_28 + y_38 + y_44 + y_45 + y_51
   + y_55 + y_70 + y_84 + y_88 + y_97 >= 1
 c_1_28: y_2 + y_7 + y_8 + y_25 + y_27 + y_28 + y_44 + y_45 + y_51 + y_70
   + y_86 + y_88 >= 1
 c_1_29: y_12 + y_18 + y_20 + y_22 + y_26 + y_29 + y_30 + y_55 + y_60
   + y_65 + y_78 + y_89 + y_94 >= 1
 c_1_30: y_1 + y_14 + y_15 + y_18 + y_20 + y_22 + y_29 + y_30 + y_38 + y_42
   + y_55 + y_73 + y_81 + y_96 + y_98 >= 1
 c_1_31: y_31 + y_36 + y_40 + y_43 + y_49 >= 1
 c_1_32: y_17 + y_24 + y_32 + y_33 + y_40 + y_43 + y_49 + y_50 + y_99 >= 1
 c_1_33: y_17 + y_32 + y_33 + y_36 + y_40 + y_43 + y_49 + y_50 + y_53
   + y_58 + y_99 >= 1
 c_1_34: y_34 + y_41 + y_44 + y_52 + y_57 + y_74 + y_80 + y_85 + y_95 >= 1
 c_1_35: y_13 + y_16 + y_35 + y_53 + y_58 + y_60 + y_78 + y_93 >= 1
 c_1_36: y_17 + y_31 + y_33 + y_36 + y_40 + y_43 + y_49 + y_50 + y_53
   + y_58 >= 1
 c_1_37: y_3 + y_4 + y_5 + y_11 + y_19 + y_23 + y_37 + y_46 + y_48 + y_56
   + y_66 + y_71 + y_77 + y_90 + y_91 + y_92 + y_97 >= 1
 c_1_38: y_0 + y_1 + y_2 + y_22 + y_27 + y_30 + y_38 + y_42 + y_51 + y_55
   + y_98 >= 1
 c_1_39: y_21 + y_39 + y_63 + y_64 + y_67 >= 1
 c_1_40: y_17 + y_31 + y_32 + y_33 + y_36 + y_40 + y_43 + y_49 + y_50
   + y_53 + y_58 + y_99 >= 1
 c_1_41: y_34 + y_41 + y_57 + y_74 + y_80 + y_85 + y_95 >= 1
 c_1_42: y_0 + y_1 + y_18 + y_22 + y_30 + y_38 + y_42 + y_55 + y_81 + y_96
   + y_98 >= 1
 c_1_43: y_17 + y_31 + y_32 + y_33 + y_36 + y_40 + y_43 + y_49 + y_50
   + y_58 + y_99 >= 1
 c_1_44: y_0 + y_2 + y_7 + y_8 + y_27 + y_28 + y_34 + y_44 + y_51 + y_57
   + y_70 + y_74 + y_85 + y_95 + y_98 >= 1
 c_1_45: y_2 + y_7 + y_8 + y_25 + y_27 + y_28 + y_45 + y_51 + y_70 + y_75
   + y_84 + y_88 >= 1
 c_1_46: y_11 + y_19 + y_20 + y_26 + y_37 + y_46 + y_56 + y_65 + y_66
   + y_77 + y_89 + y_90 + y_94 >= 1
 c_1_47: y_6 + y_10 + y_14 + y_15 + y_47 + y_54 + y_59 + y_61 + y_68 + y_79
   + y_82 + y_83 >= 1
 c_1_48: y_3 + y_4 + y_5 + y_19 + y_23 + y_37 + y_48 + y_56 + y_66 + y_77
   + y_90 + y_91 + y_92 + y_97 >= 1
 c_1_49: y_17 + y_31 + y_32 + y_33 + y_36 + y_40 + y_43 + y_49 + y_50
   + y_53 + y_58 + y_99 >= 1
 c_1_50: y_13 + y_17 + y_24 + y_32 + y_33 + y_36 + y_40 + y_43 + y_49
   + y_50 + y_53 + y_58 + y_99 >= 1
 c_1_51: y_0 + y_2 + y_7 + y_8 + y_27 + y_28 + y_38 + y_44 + y_45 + y_51
   + y_70 + y_84 + y_88 >= 1
 c_1_52: y_1 + y_15 + y_34 + y_52 + y_57 + y_59 + y_80 + y_81 + y_82 + y_83
   + y_98 >= 1
 c_1_53: y_13 + y_16 + y_33 + y_35 + y_36 + y_40 + y_49 + y_50 + y_53
   + y_58 + y_93 >= 1
 c_1_54: y_6 + y_10 + y_14 + y_15 + y_47 + y_54 + y_59 + y_61 + y_68 + y_79
   + y_82 + y_83 >= 1
 c_1_55: y_0 + y_1 + y_18 + y_20 + y_22 + y_27 + y_29 + y_30 + y_38 + y_42
   + y_55 + y_65 + y_89 + y_96 + y_98 >= 1
 c_1_56: y_3 + y_4 + y_5 + y_19 + y_23 + y_37 + y_46 + y_48 + y_56 + y_66
   + y_77 + y_90 + y_91 + y_92 + y_97 >= 1
 c_1_57: y_34 + y_41 + y_44 + y_52 + y_57 + y_74 + y_80 + y_85 + y_95 >= 1
 c_1_58: y_13 + y_33 + y_35 + y_36 + y_40 + y_43 + y_49 + y_50 + y_53
   + y_58 + y_93 + y_99 >= 1
 c_1_59: y_6 + y_10 + y_14 + y_15 + y_47 + y_52 + y_54 + y_59 + y_61 + y_68
   + y_79 + y_82 + y_83 >= 1
 c_1_60: y_12 + y_13 + y_18 + y_20 + y_26 + y_29 + y_35 + y_60 + y_63
   + y_65 + y_78 + y_93 >= 1
 c_1_61: y_6 + y_10 + y_14 + y_15 + y_47 + y_54 + y_59 + y_61 + y_69 + y_73
   + y_81 + y_82 + y_83 + y_96 >= 1
 c_1_62: y_6 + y_62 + y_68 + y_72 + y_76 + y_79 + y_87 >= 1
 c_1_63: y_11 + y_21 + y_26 + y_39 + y_60 + y_63 + y_64 + y_65 + y_67
   + y_78 + y_93 + y_94 >= 1
 c_1_64: y_16 + y_39 + y_63 + y_64 + y_67 + y_78 + y_93 >= 1
 c_1_65: y_11 + y_12 + y_18 + y_20 + y_22 + y_26 + y_29 + y_46 + y_55
   + y_60 + y_63 + y_65 + y_78 + y_89 + y_94 >= 1
 c_1_66: y_3 + y_5 + y_11 + y_19 + y_21 + y_23 + y_37 + y_46 + y_48 + y_56
   + y_66 + y_71 + y_77 + y_89 + y_90 + y_92 + y_94 >= 1
 c_1_67: y_11 + y_19 + y_21 + y_39 + y_63 + y_64 + y_67 + y_90 >= 1
 c_1_68: y_6 + y_10 + y_47 + y_54 + y_59 + y_62 + y_68 + y_72 + y_76 + y_79
   + y_82 + y_83 + y_87 >= 1
 c_1_69: y_12 + y_13 + y_14 + y_15 + y_61 + y_69 + y_73 + y_99 >= 1
 c_1_70: y_0 + y_2 + y_7 + y_8 + y_25 + y_27 + y_28 + y_44 + y_45 + y_51
   + y_70 + y_84 + y_88 >= 1
 c_1_71: y_3 + y_5 + y_9 + y_19 + y_21 + y_23 + y_37 + y_66 + y_71 + y_77
   + y_90 + y_92 >= 1
 c_1_72: y_62 + y_68 + y_72 + y_76 + y_79 + y_87 >= 1
 c_1_73: y_12 + y_14 + y_15 + y_18 + y_30 + y_61 + y_69 + y_73 + y_81
   + y_96 >= 1
 c_1_74: y_34 + y_41 + y_44 + y_57 + y_74 + y_80 + y_85 + y_95 >= 1
 c_1_75: y_2 + y_4 + y_45 + y_75 + y_84 + y_88 + y_91 + y_97 >= 1
 c_1_76: y_62 + y_68 + y_72 + y_76 + y_79 + y_87 >= 1
 c_1_77: y_3 + y_5 + y_11 + y_19 + y_21 + y_23 + y_37 + y_46 + y_48 + y_56
   + y_66 + y_71 + y_77 + y_90 + y_92 + y_94 >= 1
 c_1_78: y_12 + y_26 + y_29 + y_35 + y_60 + y_63 + y_64 + y_65 + y_78
   + y_93 >= 1
 c_1_79: y_6 + y_10 + y_47 + y_54 + y_59 + y_62 + y_68 + y_72 + y_76 + y_79
   + y_82 + y_83 + y_87 >= 1
 c_1_80: y_34 + y_41 + y_52 + y_57 + y_74 + y_80 + y_85 + y_95 >= 1
 c_1_81: y_1 + y_14 + y_15 + y_22 + y_30 + y_42 + y_52 + y_61 + y_73 + y_81
   + y_83 + y_96 + y_98 >= 1
 c_1_82: y_6 + y_10 + y_47 + y_52 + y_54 + y_59 + y_61 + y_68 + y_79 + y_82
   + y_83 >= 1
 c_1_83: y_6 + y_10 + y_14 + y_15 + y_47 + y_52 + y_54 + y_59 + y_61 + y_68
   + y_79 + y_81 + y_82 + y_83 >= 1
 c_1_84: y_2 + y_4 + y_8 + y_27 + y_45 + y_51 + y_70 + y_75 + y_84 + y_88
   + y_91 + y_97 >= 1
 c_1_85: y_34 + y_41 + y_44 + y_57 + y_74 + y_80 + y_85 + y_95 + y_98 >= 1
 c_1_86: y_7 + y_25 + y_28 + y_86 >= 1
 c_1_87: y_62 + y_68 + y_72 + y_76 + y_79 + y_87 >= 1
 c_1_88: y_0 + y_2 + y_4 + y_7 + y_8 + y_25 + y_27 + y_28 + y_45 + y_51
   + y_70 + y_75 + y_84 + y_88 + y_97 >= 1
 c_1_89: y_11 + y_18 + y_20 + y_22 + y_26 + y_29 + y_46 + y_55 + y_65
   + y_66 + y_89 + y_94 >= 1
 c_1_90: y_3 + y_5 + y_11 + y_19 + y_21 + y_23 + y_37 + y_46 + y_48 + y_56
   + y_66 + y_67 + y_71 + y_77 + y_90 + y_92 + y_94 >= 1
 c_1_91: y_4 + y_37 + y_48 + y_56 + y_75 + y_84 + y_91 + y_97 >= 1
 c_1_92: y_3 + y_5 + y_9 + y_19 + y_23 + y_37 + y_48 + y_56 + y_66 + y_71
   + y_77 + y_90 + y_92 >= 1
 c_1_93: y_16 + y_26 + y_35 + y_53 + y_58 + y_60 + y_63 + y_64 + y_78
   + y_93 >= 1
 c_1_94: y_11 + y_18 + y_19 + y_20 + y_26 + y_29 + y_46 + y_63 + y_65
   + y_66 + y_77 + y_89 + y_90 + y_94 >= 1
 c_1_95: y_34 + y_41 + y_44 + y_57 + y_74 + y_80 + y_85 + y_95 >= 1
 c_1_96: y_1 + y_14 + y_15 + y_18 + y_22 + y_30 + y_42 + y_55 + y_61 + y_73
   + y_81 + y_96 + y_98 >= 1
 c_1_97: y_2 + y_4 + y_27 + y_37 + y_48 + y_56 + y_75 + y_84 + y_88 + y_91
   + y_97 >= 1
 c_1_98: y_0 + y_1 + y_22 + y_30 + y_38 + y_42 + y_44 + y_52 + y_55 + y_81
   + y_85 + y_96 + y_98 >= 1
 c_1_99: y_13 + y_17 + y_24 + y_32 + y_33 + y_40 + y_43 + y_49 + y_50
   + y_58 + y_69 + y_99 >= 1
Bounds
 Constant = 1
Binaries
 y_0 y_1 y_2 y_3 y_4 y_5 y_6 y_7 y_8 y_9 y_10 y_11 y_12 y_13 y_14 y_15 y_16
 y_17 y_18 y_19 y_20 y_21 y_22 y_23 y_24 y_25 y_26 y_27 y_28 y_29 y_30 y_31
 y_32 y_33 y_34 y_35 y_36 y_37 y_38 y_39 y_40 y_41 y_42 y_43 y_44 y_45 y_46
 y_47 y_48 y_49 y_50 y_51 y_52 y_53 y_54 y_55 y_56 y_57 y_58 y_59 y_60 y_61
 y_62 y_63 y_64 y_65 y_66 y_67 y_68 y_69 y_70 y_71 y_72 y_73 y_74 y_75 y_76
 y_77 y_78 y_79 y_80 y_81 y_82 y_83 y_84 y_85 y_86 y_87 y_88 y_89 y_90 y_91
 y_92 y_93 y_94 y_95 y_96 y_97 y_98 y_99
End
